Route 1: 54 100 9 12 37 4 40 16 24 43 18 27 15 7 3 14 6 28 130 58 69 113 46 20 186 138 159 26 10 25 104 122 5 135 73 79 2 34 1 8 13 60 11 17 30 96 19 141 185 120 39 36

Route 2: 142 92 182 169 179 167 98 161 72 57 31 53 94 56 45 85 59 89 29 22 52 23 32 38 74 86 21 65 125 189 192 101 50 33 81 55 41 158 157 107 154 82 66 64 67

Route 3: 153 49 47 132 78 42 62 35 77 63 136 48 131 124 156 102 152 183 68 103 90 44 95 51 111 61 198 106 129 145 126 70 91 80 116 110 178 93 193 146 83 148

Route 4: 163 162 149 84 127 118 105 140 119 133 147 128 165 114 117 108 112 109 160 151 99 143 188 139 166 144 71 88 134 137 123 115 121 87 174 97 76 75 175

Route 5: 173 177 168 155 172 164 170 171 187 150 176 191

Route 6: 199 197 181 200 180 196 190 184 195 194

Vehicles: 6

Distance: 4429.69

